Maximize
    30 x1 + 12 x2 + 15 x3

Subject To
    R1: x3 <= 20
    R2: 9 x1 + 3 x2 + 5 x3 <= 500
    R3: 5 x1 + 4 x2 <= 350
    R4: 3 x1 + 2 x3 <= 150
    
Bounds
    x1 >= 0
    x2 >= 0
    x3 >= 0

End
